experiments/knapsack_bounded/knapsack_bounded_25_2.mps
NAME
ROWS
 N  OBJ
 L  c1
 L  c2
 L  c3
 L  c4
 L  c5
 L  c6
 L  c7
 L  c8
 L  c9
 L  c10
 L  c11
 L  c12
 L  c13
 L  c14
 L  c15
 L  c16
 L  c17
 L  c18
 L  c19
 L  c20
 L  c21
 L  c22
 L  c23
 L  c24
 L  c25
 L  c26
COLUMNS
    MARKER    'MARKER'                 'INTORG'
    x[1]      c1        996
    x[1]      c2        1
    x[1]      OBJ       -330
    x[2]      c1        910
    x[2]      c3        1
    x[2]      OBJ       -424
    x[3]      c1        446
    x[3]      c4        1
    x[3]      OBJ       -786
    x[4]      c1        543
    x[4]      c5        1
    x[4]      OBJ       -864
    x[5]      c1        350
    x[5]      c6        1
    x[5]      OBJ       -849
    x[6]      c1        464
    x[6]      c7        1
    x[6]      OBJ       -376
    x[7]      c1        465
    x[7]      c8        1
    x[7]      OBJ       -832
    x[8]      c1        96
    x[8]      c9        1
    x[8]      OBJ       -532
    x[9]      c1        770
    x[9]      c10       1
    x[9]      OBJ       -642
    x[10]     c1        492
    x[10]     c11       1
    x[10]     OBJ       -444
    x[11]     c1        775
    x[11]     c12       1
    x[11]     OBJ       -913
    x[12]     c1        16
    x[12]     c13       1
    x[12]     OBJ       -338
    x[13]     c1        580
    x[13]     c14       1
    x[13]     OBJ       -673
    x[14]     c1        718
    x[14]     c15       1
    x[14]     OBJ       -954
    x[15]     c1        535
    x[15]     c16       1
    x[15]     OBJ       -369
    x[16]     c1        286
    x[16]     c17       1
    x[16]     OBJ       -414
    x[17]     c1        401
    x[17]     c18       1
    x[17]     OBJ       -733
    x[18]     c1        607
    x[18]     c19       1
    x[18]     OBJ       -14
    x[19]     c1        368
    x[19]     c20       1
    x[19]     OBJ       -814
    x[20]     c1        235
    x[20]     c21       1
    x[20]     OBJ       -156
    x[21]     c1        323
    x[21]     c22       1
    x[21]     OBJ       -675
    x[22]     c1        814
    x[22]     c23       1
    x[22]     OBJ       -903
    x[23]     c1        607
    x[23]     c24       1
    x[23]     OBJ       -246
    x[24]     c1        744
    x[24]     c25       1
    x[24]     OBJ       -142
    x[25]     c1        351
    x[25]     c26       1
    x[25]     OBJ       -351
    MARKER    'MARKER'                 'INTEND'
RHS
    rhs       c1        6446
    rhs       c2        10
    rhs       c3        8
    rhs       c4        4
    rhs       c5        3
    rhs       c6        7
    rhs       c7        8
    rhs       c8        4
    rhs       c9        7
    rhs       c10       6
    rhs       c11       2
    rhs       c12       5
    rhs       c13       5
    rhs       c14       9
    rhs       c15       1
    rhs       c16       3
    rhs       c17       10
    rhs       c18       1
    rhs       c19       4
    rhs       c20       1
    rhs       c21       7
    rhs       c22       2
    rhs       c23       6
    rhs       c24       9
    rhs       c25       9
    rhs       c26       3
RANGES
BOUNDS
 LO bounds    x[1]      0
 PL bounds    x[1]
 LO bounds    x[2]      0
 PL bounds    x[2]
 LO bounds    x[3]      0
 PL bounds    x[3]
 LO bounds    x[4]      0
 PL bounds    x[4]
 LO bounds    x[5]      0
 PL bounds    x[5]
 LO bounds    x[6]      0
 PL bounds    x[6]
 LO bounds    x[7]      0
 PL bounds    x[7]
 LO bounds    x[8]      0
 PL bounds    x[8]
 LO bounds    x[9]      0
 PL bounds    x[9]
 LO bounds    x[10]     0
 PL bounds    x[10]
 LO bounds    x[11]     0
 PL bounds    x[11]
 LO bounds    x[12]     0
 PL bounds    x[12]
 LO bounds    x[13]     0
 PL bounds    x[13]
 LO bounds    x[14]     0
 PL bounds    x[14]
 LO bounds    x[15]     0
 PL bounds    x[15]
 LO bounds    x[16]     0
 PL bounds    x[16]
 LO bounds    x[17]     0
 PL bounds    x[17]
 LO bounds    x[18]     0
 PL bounds    x[18]
 LO bounds    x[19]     0
 PL bounds    x[19]
 LO bounds    x[20]     0
 PL bounds    x[20]
 LO bounds    x[21]     0
 PL bounds    x[21]
 LO bounds    x[22]     0
 PL bounds    x[22]
 LO bounds    x[23]     0
 PL bounds    x[23]
 LO bounds    x[24]     0
 PL bounds    x[24]
 LO bounds    x[25]     0
 PL bounds    x[25]
ENDATA
